p cnf 100 40
x 2 5 7 -8 9 11 -12 -13 -14 18 -19 21 -24 26 -34 -35 37 -40 -46 -48 -50 52 53 -58 -63 -64 -75 76 -80 82 -86 87 -89 90 91 -93 -94 96 98 100 0
x 1 -2 -3 -7 -9 17 19 22 23 -25 27 32 34 36 -38 -39 40 41 -42 -43 44 -47 -50 -51 -52 -53 -54 66 -68 70 72 73 -74 75 -77 79 80 82 -85 -86 -87 -88 92 94 -96 -97 98 -99 -100 0
x 4 -5 -8 -11 14 17 -19 21 -23 -25 -28 29 -30 -31 -34 -35 -38 39 -41 43 45 47 51 52 54 55 57 58 -59 60 62 -65 67 69 -72 73 75 -77 -79 81 82 85 86 -87 90 -91 -93 94 96 98 -99 0
x 1 2 4 5 -6 -10 14 15 17 -19 -20 22 -25 -27 -28 29 30 -31 32 -34 -35 38 -39 -42 43 44 -48 -49 -51 -52 59 -65 -67 68 -69 71 73 76 77 78 79 83 84 87 88 90 -91 92 93 -94 95 96 97 98 0
x -2 -5 -9 10 -14 16 -18 20 -21 22 -27 -29 30 -31 33 36 37 -38 -39 40 -43 -46 -47 48 -53 -55 -56 -65 66 -74 -76 -78 -79 80 81 82 -83 -84 87 91 -92 -94 95 97 0
x -2 5 -9 -11 -13 14 -15 16 -18 -19 20 21 27 -29 -30 -32 33 -36 37 38 -43 -45 -46 -49 -50 51 59 60 61 -62 63 65 70 71 74 -76 -77 79 -83 -89 90 -91 94 97 99 -100 0
x 1 2 -3 -6 9 11 -13 -14 15 20 -21 -22 24 25 30 31 34 37 38 -40 -41 43 44 49 50 52 53 -54 -58 -62 63 64 -65 66 68 70 71 -74 76 -77 78 -80 -84 85 -89 91 97 -99 0
x -1 -2 4 -11 12 13 14 15 16 17 -18 -19 -22 23 -24 25 26 29 -32 36 -37 38 -41 -42 44 46 50 -51 -52 53 55 56 -57 -60 62 -64 -68 -77 -79 80 -85 -86 91 92 94 -95 -96 -98 99 -100 0
x -1 2 8 9 10 11 15 19 -20 -22 -24 -25 29 -31 -33 -34 -35 37 -39 43 45 -47 51 54 -58 -59 61 -66 68 -74 -75 77 -78 79 80 82 -85 86 -87 88 89 90 -91 93 94 -96 99 0
x 3 -5 -6 7 10 -11 -13 -15 20 25 28 29 30 -32 36 38 -39 44 51 55 58 -59 60 62 64 67 72 -74 76 79 81 82 85 -87 -90 -91 92 94 96 99 100 0
x -1 2 3 5 7 8 10 -11 -15 16 -17 18 -20 -21 25 -27 28 -30 -32 33 34 37 38 42 -43 -45 -46 48 -49 50 -51 54 -55 -57 58 -59 -62 -63 -64 -65 -67 -69 71 72 75 -76 77 79 88 92 93 -96 97 -98 99 0
x -1 3 -11 -12 -13 15 -18 -19 20 -23 -24 -26 -32 -33 -34 35 -36 37 38 39 41 42 -43 -45 -48 54 -57 -58 -59 -60 62 64 -65 66 -67 68 69 -76 -77 78 79 -82 83 -84 85 87 -88 89 -91 -92 94 -95 97 99 100 0
x -1 -2 4 -6 -7 -8 9 -10 12 -13 19 -21 22 24 28 29 -31 -32 -33 -34 -35 37 39 -42 -43 -46 -47 -48 -51 -56 63 -64 65 -67 -68 69 -70 71 -79 84 85 87 -88 89 91 -92 93 -94 97 100 0
x -1 2 -3 -4 -5 -6 -9 -10 -14 -19 -21 -22 -23 27 28 -29 31 -32 -33 -34 -38 40 -41 -42 -43 -47 -52 -53 54 -56 -57 59 60 -61 64 -67 -68 -70 71 -73 -74 76 -77 80 -83 86 -88 92 -96 99 100 0
x 1 3 4 7 8 9 10 11 13 -14 -15 -16 17 -18 -21 -22 -23 24 -25 -27 -29 -30 32 -34 35 36 39 42 -44 46 48 -51 -52 -53 -54 -56 -58 -60 -61 63 68 -69 -72 -76 -79 80 -81 82 83 85 86 -88 -89 94 95 -96 100 0
x -4 5 12 -13 -14 -18 -19 20 -24 25 26 27 -29 30 31 32 -34 -36 -37 -39 40 -41 -42 44 46 -49 -50 -51 -57 -58 61 62 -63 -64 70 71 75 76 -77 78 81 -82 -83 -84 87 -88 -91 -92 -94 96 100 0
x -2 3 4 -5 6 7 8 9 12 13 -14 15 -16 18 19 -22 -23 -27 -28 30 -31 35 37 38 -39 40 -41 42 -43 46 -47 48 -52 -54 55 -56 -59 -61 -66 67 68 -73 75 -77 83 86 -87 -93 -96 99 0
x 2 6 8 9 10 -12 13 -14 -16 18 -19 -20 -22 24 26 27 29 30 -31 34 36 39 43 44 -46 50 52 -54 56 -57 59 -60 -62 69 70 -71 72 73 -77 -80 81 83 -86 -87 89 90 91 -96 97 98 0
x -5 6 -9 -14 15 17 -21 23 27 -30 -31 33 -34 -35 37 -40 43 44 -45 50 52 53 54 -55 -56 -58 60 62 -65 -66 72 75 77 -78 81 84 -85 -86 88 90 -92 96 99 100 0
x 2 3 4 5 -7 8 9 -10 -11 12 -13 15 17 -20 -21 -29 30 31 -32 35 36 -37 -38 -39 41 -46 -48 49 -50 51 -52 53 55 -56 58 61 -64 65 -66 -67 -68 69 70 71 72 73 76 -77 -78 -79 81 -83 -84 86 -87 -90 92 -96 97 0
x -1 -2 3 -4 8 9 10 -11 -12 13 -18 20 -23 24 -25 26 27 28 -30 -31 -33 -34 -35 -40 41 44 45 -47 -48 50 -51 -54 55 -56 -57 58 59 -60 -62 -63 -64 65 66 -67 -71 -73 74 75 76 -77 -78 79 80 -81 -82 87 89 90 96 -98 99 0
x 1 -2 4 7 -8 -11 -14 -15 19 -20 -22 -23 -26 -27 -31 -32 -33 42 44 -45 50 51 -52 54 55 -57 58 59 60 -62 -63 -64 -66 70 71 -73 76 -82 -83 -84 -86 87 -90 91 -96 100 0
x 2 -4 5 7 8 13 -14 -16 19 -20 -21 -23 24 26 27 28 29 31 33 35 39 -41 42 44 -49 51 52 -54 -56 58 59 -64 -66 -67 -68 -70 71 -72 -75 76 -77 79 -82 -83 -85 -86 -90 94 95 96 0
x 2 -3 7 -9 -10 12 13 14 16 19 20 -21 -23 -24 25 -26 -29 30 33 -35 38 40 -41 -42 44 45 47 48 49 -50 -52 -55 -58 -59 -61 -63 68 -72 -73 -75 76 77 78 -80 81 -83 84 86 -87 -90 91 92 -94 -95 -96 -98 -99 -100 0
x 1 5 -6 11 12 -16 -19 20 -21 23 -24 -25 -26 28 -29 30 -34 -36 38 39 40 -42 -44 -47 50 52 -53 57 59 -63 65 -68 -69 73 74 -76 78 -83 -87 88 92 94 -96 -98 0
x -3 -7 -8 -9 11 13 14 15 -17 -19 -20 23 25 27 -28 33 34 36 -38 -39 42 45 46 47 48 -52 53 55 -58 60 -62 -63 64 -66 68 70 -73 76 77 -82 83 -84 -86 -88 89 -91 92 94 95 97 98 0
x -1 -2 -3 -6 7 -10 13 15 -18 -21 -22 -23 25 -30 31 -35 41 -42 -43 45 -46 -48 -51 -52 -53 -55 -56 57 -58 -59 -60 63 68 -71 -72 74 75 -76 79 -81 85 -88 91 -92 -95 0
x 1 -3 5 -8 10 12 -13 -15 -21 -25 -28 -29 -32 -34 36 -37 38 -40 41 42 -43 45 51 -52 -55 63 69 -74 -75 76 -77 -78 -80 -81 -82 -83 84 -85 88 -90 -91 -92 -95 -98 -99 100 0
x 1 6 8 9 10 -11 13 14 16 -17 18 20 -21 22 -26 -27 -29 30 32 -34 -36 40 -41 44 -45 -46 47 -48 50 -53 -56 -60 -61 63 64 65 -67 -68 -69 72 73 -74 -75 76 77 78 79 -82 83 86 87 -88 90 91 95 -98 -99 0
x 3 -5 17 18 -23 24 26 -27 -28 31 33 -34 -35 38 -39 -40 -42 46 47 48 -49 -51 52 53 -54 55 -58 62 -63 64 -66 -67 -68 72 -73 -75 -79 81 -84 87 -89 -90 -91 93 95 -97 -99 -100 0
x -1 3 4 -5 8 -12 13 14 16 -20 21 -22 -23 24 25 -26 27 28 -30 -31 34 -35 40 42 43 44 -45 -53 -54 -55 -56 60 -65 72 -74 -76 -80 -86 90 94 -95 96 -98 99 0
x 1 -3 -5 6 8 14 -15 16 17 -18 -19 20 -22 25 -27 -28 29 33 35 -37 -38 42 -44 -45 -46 -48 -50 -53 -54 -55 -57 -58 -60 62 -64 65 67 -68 -69 72 74 -75 77 -78 79 -81 -86 87 -88 89 92 95 -96 -97 -98 -99 0
x 2 -3 -4 -6 8 -9 10 11 -12 14 -15 17 -19 21 -22 -24 28 -29 -30 -31 32 -33 -36 37 -38 -39 40 -42 -43 44 -46 49 -52 -53 -55 56 -59 -60 -63 65 -67 68 69 70 -71 -72 -76 -81 -82 -86 -87 89 90 -92 96 98 0
x -1 2 4 7 -8 -10 11 -12 19 20 22 -23 -29 30 32 33 -35 39 40 42 -44 45 -47 -49 -50 -53 55 -56 -59 60 -61 63 64 -70 71 -72 -74 -75 -76 80 -83 86 -92 93 94 97 0
x 2 -3 -4 6 -7 11 -15 16 -17 -19 -22 23 27 28 -29 31 -33 39 42 -43 47 -48 49 -51 54 -55 57 -59 60 -61 62 63 -64 -65 -67 68 -69 70 -71 73 -74 -75 76 -77 -78 -80 81 -88 -90 -91 -92 -94 98 100 0
x -1 -2 -3 4 5 6 8 -9 -10 -11 13 14 15 16 18 19 20 21 23 26 -28 35 -37 44 47 -48 -52 -57 58 61 -62 -63 -65 69 -70 73 -79 -80 81 83 -85 86 -88 89 94 -96 -98 99 0
x -3 -6 7 -11 -12 18 -22 -24 -26 28 29 31 32 -33 -35 38 39 -40 43 -45 -46 -51 -54 -55 -56 -57 -60 64 65 -67 68 -70 73 -75 -78 79 82 86 87 88 -90 -91 -94 -96 -97 -99 0
x 1 -2 3 -4 9 -12 14 -15 -16 19 -21 -22 24 -25 27 -29 31 -32 34 -40 -41 43 45 46 47 -50 -51 54 -55 56 57 58 -59 -60 61 63 -64 65 66 67 -68 70 72 -73 75 -76 77 80 -88 89 90 91 92 -98 0
x -2 4 -5 6 8 11 13 -14 -15 16 -17 -18 -19 -21 -22 23 -26 -27 29 -33 -34 37 -38 40 -44 -50 51 -53 54 57 -58 59 -62 -63 68 69 -71 73 74 -76 -78 -83 -85 86 88 90 -91 92 -95 98 99 -100 0
x 1 3 -4 -5 6 8 10 11 -15 16 -17 18 21 -23 24 25 -27 28 29 -30 33 36 -37 38 40 44 -46 -50 53 -54 -56 57 58 62 -63 -65 -66 68 69 71 -72 -75 76 78 79 -80 -87 88 -89 94 97 -98 0
g -20